decision_x1=[0,2];
decision_x2=[0,2];
decision_x3=[0,2];
decision_x4=[0,2];
decision_x5=[0,2];
decision_x6=[0,2];
decision_x7=[0,2];
decision_x8=[0,2];
decision_x9=[0,2];
decision_x10=[0,2];
decision_x11=[0,2];
decision_x12=[0,2];
random_y1=[0,2];
random_y2=[0,2];
random_y3=[0,2];
random_y4=[0,2];
random_y5=[0,2];
random_y6=[0,2];
random_y7=[0,2];
random_y8=[0,2];
random_y9=[0,2];
random_y10=[0,2];
random_y11=[0,2];
random_y12=[0,2];
constraint_x2_x1=[
0,0,7.8|
0,1,5.4|
0,2,0.44|
1,0,1|
1,1,5.5|
1,2,2.5|
2,0,2.8|
2,1,6.6|
2,2,6.1|
];
constraint_x3_x2=[
0,0,8.3|
0,1,1.8|
0,2,9.4|
1,0,0.26|
1,1,3.3|
1,2,4.3|
2,0,0.98|
2,1,7.1|
2,2,8.6|
];
constraint_x4_x1=[
0,0,5.9|
0,1,7.9|
0,2,9.8|
1,0,3|
1,1,4.6|
1,2,2.9|
2,0,7.6|
2,1,6.4|
2,2,7.9|
];
constraint_x4_x2=[
0,0,10|
0,1,2.5|
0,2,5.9|
1,0,9.1|
1,1,8.6|
1,2,5.2|
2,0,0.11|
2,1,8.5|
2,2,8.1|
];
constraint_x5_x1=[
0,0,5.1|
0,1,2.5|
0,2,3.7|
1,0,2.4|
1,1,5.2|
1,2,0.56|
2,0,0.45|
2,1,5.1|
2,2,1.9|
];
constraint_x6_x3=[
0,0,7.8|
0,1,4.2|
0,2,3.7|
1,0,1.1|
1,1,6.3|
1,2,6.7|
2,0,7.7|
2,1,1.5|
2,2,4.1|
];
constraint_x7_x2=[
0,0,8.2|
0,1,0.79|
0,2,0.51|
1,0,9.6|
1,1,7.7|
1,2,6.2|
2,0,0.8|
2,1,4|
2,2,5.9|
];
constraint_x7_x4=[
0,0,0.42|
0,1,8.1|
0,2,3.6|
1,0,5.6|
1,1,7.1|
1,2,7.7|
2,0,1.7|
2,1,5.6|
2,2,1.5|
];
constraint_x8_x1=[
0,0,1.3|
0,1,2.7|
0,2,10|
1,0,0.69|
1,1,7.6|
1,2,2.3|
2,0,9.3|
2,1,2.2|
2,2,6.9|
];
constraint_x8_x4=[
0,0,3.1|
0,1,3|
0,2,0.44|
1,0,8.5|
1,1,3.4|
1,2,8|
2,0,3.1|
2,1,3.8|
2,2,5.2|
];
constraint_x8_x5=[
0,0,0.78|
0,1,1.9|
0,2,7.5|
1,0,9.2|
1,1,8.7|
1,2,5.7|
2,0,1.3|
2,1,6.3|
2,2,3.4|
];
constraint_x8_x6=[
0,0,0.62|
0,1,2.4|
0,2,1.6|
1,0,5.4|
1,1,7|
1,2,9.2|
2,0,4.5|
2,1,2.7|
2,2,3.7|
];
constraint_x9_x7=[
0,0,9.6|
0,1,0.038|
0,2,7.1|
1,0,7.9|
1,1,2.5|
1,2,2.4|
2,0,5.3|
2,1,7.2|
2,2,0.94|
];
constraint_x9_x8=[
0,0,4.5|
0,1,10|
0,2,4.1|
1,0,2.9|
1,1,3.4|
1,2,4.2|
2,0,9.8|
2,1,2.5|
2,2,1.1|
];
constraint_x10_x3=[
0,0,4|
0,1,4.3|
0,2,6.4|
1,0,3.5|
1,1,1.5|
1,2,1.4|
2,0,8.8|
2,1,4.2|
2,2,5.8|
];
constraint_x10_x5=[
0,0,5|
0,1,4.4|
0,2,6.9|
1,0,7.4|
1,1,9.7|
1,2,6.2|
2,0,5.7|
2,1,4.5|
2,2,7.3|
];
constraint_x10_x6=[
0,0,9.4|
0,1,8.1|
0,2,5.4|
1,0,1.7|
1,1,2.2|
1,2,6|
2,0,1.2|
2,1,3.9|
2,2,3.7|
];
constraint_x10_x7=[
0,0,1.7|
0,1,7.5|
0,2,0.15|
1,0,5.2|
1,1,3.6|
1,2,0.54|
2,0,2|
2,1,5.5|
2,2,8.3|
];
constraint_x11_x1=[
0,0,4.3|
0,1,6.2|
0,2,9.6|
1,0,0.04|
1,1,9.9|
1,2,5.7|
2,0,1.2|
2,1,5.9|
2,2,7.4|
];
constraint_x11_x2=[
0,0,9.1|
0,1,0.48|
0,2,0.52|
1,0,2|
1,1,7.3|
1,2,7.3|
2,0,8|
2,1,0.48|
2,2,2|
];
constraint_x11_x4=[
0,0,7.6|
0,1,5.9|
0,2,2.7|
1,0,7.5|
1,1,1.3|
1,2,4.2|
2,0,1.7|
2,1,3.3|
2,2,7.5|
];
constraint_x11_x5=[
0,0,5.3|
0,1,9.4|
0,2,5.3|
1,0,3.5|
1,1,5.2|
1,2,9.2|
2,0,0.76|
2,1,5.3|
2,2,0.14|
];
constraint_x11_x6=[
0,0,0.67|
0,1,4.9|
0,2,5.4|
1,0,9.8|
1,1,3.1|
1,2,6.6|
2,0,6.9|
2,1,5.9|
2,2,0.31|
];
constraint_x11_x7=[
0,0,2.2|
0,1,4.5|
0,2,7.7|
1,0,3.2|
1,1,7.3|
1,2,0.43|
2,0,9.4|
2,1,7.1|
2,2,7.2|
];
constraint_x11_x8=[
0,0,1.7|
0,1,7.3|
0,2,9.2|
1,0,9.6|
1,1,1.4|
1,2,0.97|
2,0,0.018|
2,1,1.1|
2,2,2.4|
];
constraint_x11_x9=[
0,0,9.5|
0,1,1.2|
0,2,3.6|
1,0,6.4|
1,1,6|
1,2,9.4|
2,0,4.3|
2,1,0.78|
2,2,3.3|
];
constraint_x12_x3=[
0,0,4.5|
0,1,4.9|
0,2,0.72|
1,0,0.043|
1,1,5.2|
1,2,7.5|
2,0,9.5|
2,1,3.1|
2,2,5.6|
];
constraint_x12_x5=[
0,0,9.8|
0,1,3.4|
0,2,6.3|
1,0,7|
1,1,4.4|
1,2,4.7|
2,0,8|
2,1,9.6|
2,2,9|
];
constraint_x12_x6=[
0,0,2|
0,1,7.3|
0,2,8.6|
1,0,2.6|
1,1,1.4|
1,2,0.17|
2,0,6.1|
2,1,9|
2,2,3.9|
];
constraint_x12_x7=[
0,0,0.1|
0,1,9.7|
0,2,7.6|
1,0,6.8|
1,1,3.2|
1,2,3.2|
2,0,1.2|
2,1,1.4|
2,2,7.5|
];
constraint_x12_x8=[
0,0,2.8|
0,1,7.4|
0,2,6.8|
1,0,5.8|
1,1,8.5|
1,2,7|
2,0,8.2|
2,1,3.4|
2,2,4.3|
];
constraint_x12_x9=[
0,0,9|
0,1,0.8|
0,2,7.5|
1,0,6.2|
1,1,5.8|
1,2,9.5|
2,0,2.7|
2,1,5.1|
2,2,6.8|
];
constraint_x12_x11=[
0,0,9.1|
0,1,7.9|
0,2,2.9|
1,0,6.7|
1,1,7.8|
1,2,1.6|
2,0,8.9|
2,1,9.6|
2,2,0.36|
];
constraint_x1_y1=[
0,0,5.6|
0,1,8.1|
0,2,4.8|
1,0,9.2|
1,1,1.1|
1,2,4.3|
2,0,7.2|
2,1,8.2|
2,2,1|
];
constraint_x2_y2=[
0,0,3|
0,1,0.14|
0,2,5.3|
1,0,5.8|
1,1,6.2|
1,2,3.8|
2,0,3.8|
2,1,8.1|
2,2,8.9|
];
constraint_x3_y3=[
0,0,6.7|
0,1,0.85|
0,2,1.9|
1,0,3.9|
1,1,1.3|
1,2,1.3|
2,0,1.9|
2,1,2.5|
2,2,8|
];
constraint_x4_y4=[
0,0,1.4|
0,1,8.5|
0,2,4.3|
1,0,5.9|
1,1,4.4|
1,2,1.9|
2,0,0.45|
2,1,7.9|
2,2,1.7|
];
constraint_x5_y5=[
0,0,1.5|
0,1,7.6|
0,2,5|
1,0,4|
1,1,8.5|
1,2,6|
2,0,0.33|
2,1,0.32|
2,2,2.9|
];
constraint_x6_y6=[
0,0,8.5|
0,1,6.3|
0,2,9.6|
1,0,1.2|
1,1,1.7|
1,2,5.8|
2,0,2.3|
2,1,1.1|
2,2,3.2|
];
constraint_x7_y7=[
0,0,8.7|
0,1,3|
0,2,9.8|
1,0,7.4|
1,1,6.9|
1,2,9.6|
2,0,8.9|
2,1,6.6|
2,2,5|
];
constraint_x8_y8=[
0,0,1|
0,1,3|
0,2,4.6|
1,0,1.8|
1,1,3.5|
1,2,9.1|
2,0,3.2|
2,1,0.067|
2,2,0.15|
];
constraint_x9_y9=[
0,0,8.3|
0,1,7.5|
0,2,5.7|
1,0,0.96|
1,1,7.3|
1,2,5.4|
2,0,2.1|
2,1,9.4|
2,2,2.2|
];
constraint_x10_y10=[
0,0,5.3|
0,1,2.1|
0,2,5.8|
1,0,2.1|
1,1,6.3|
1,2,4.3|
2,0,4.6|
2,1,9.1|
2,2,6.2|
];
constraint_x11_y11=[
0,0,2.9|
0,1,3.5|
0,2,3.9|
1,0,8.8|
1,1,6.3|
1,2,8.4|
2,0,0.46|
2,1,2.2|
2,2,4.9|
];
constraint_x12_y12=[
0,0,8.3|
0,1,4.6|
0,2,6.3|
1,0,3.2|
1,1,2.8|
1,2,7|
2,0,6.4|
2,1,4.5|
2,2,0.71|
];
initial_distribution_y1=[0.23,0.58,0.19];
initial_distribution_y2=[0.38,0.32,0.3];
initial_distribution_y3=[0.095,0.52,0.39];
initial_distribution_y4=[0.072,0.18,0.75];
initial_distribution_y5=[0.32,0.38,0.3];
initial_distribution_y6=[0.4,0.16,0.44];
initial_distribution_y7=[0.46,0.0071,0.53];
initial_distribution_y8=[0.011,0.56,0.42];
initial_distribution_y9=[0.037,0.76,0.2];
initial_distribution_y10=[0.25,0.52,0.23];
initial_distribution_y11=[0.42,0.38,0.2];
initial_distribution_y12=[0.18,0.48,0.34];
transition_y1=[
0.41,0.2,0.39|
0.051,0.23,0.72|
0.45,0.089,0.46|
];
transition_y2=[
0.32,0.34,0.34|
0.43,0.27,0.29|
0.23,0.32,0.45|
];
transition_y3=[
0.23,0.14,0.63|
0.32,0.27,0.4|
0.43,0.14,0.43|
];
transition_y4=[
0.51,0.089,0.4|
0.63,0.28,0.09|
0.41,0.23,0.36|
];
transition_y5=[
0.55,0.053,0.4|
0.053,0.7,0.25|
0.85,0.068,0.08|
];
transition_y6=[
0.23,0.097,0.67|
0.22,0.45,0.33|
0.081,0.23,0.69|
];
transition_y7=[
0.17,0.47,0.37|
0.79,0.041,0.17|
0.3,0.28,0.42|
];
transition_y8=[
0.48,0.23,0.28|
0.4,0.35,0.24|
0.16,0.4,0.44|
];
transition_y9=[
0.22,0.21,0.57|
0.4,0.092,0.5|
0.52,0.44,0.043|
];
transition_y10=[
0.19,0.25,0.56|
0.5,0.16,0.34|
0.14,0.48,0.38|
];
transition_y11=[
0.3,0.18,0.52|
0.17,0.22,0.61|
0.4,0.33,0.27|
];
transition_y12=[
0.53,0.39,0.077|
0.42,0.056,0.53|
0.077,0.58,0.35|
];
